c This Formular is generated by mcnf
c
c    horn? no 
c    forced? no 
c    mixed sat? no 
c    clause length = 3 
c
p cnf 20  91 
 14 5 -15 0
6 -16 -12 0
-7 -19 6 0
2 -19 15 0
-1 -18 -10 0
10 20 2 0
5 18 14 0
-3 -15 -17 0
-11 -17 12 0
11 7 -5 0
2 3 4 0
-6 4 -12 0
-9 19 -5 0
-6 -17 -11 0
-9 1 -5 0
13 -5 -3 0
-6 18 -3 0
-9 -1 5 0
12 -1 -3 0
3 -8 -17 0
7 -12 -4 0
%
0

21 7 79 97 47 80 72 32 8 75 8 60 99 4 10 10 31 65 76 71
